% seed = 9089883

mint = 55;
% maxt = 248;

nActs = 42;
dur = [0,3,2,9,10,1,6,8,3,9,3,6,5,7,4,7,7,9,9,7,8,3,3,9,2,8,10,5,9,7,7,5,7,8,7,10,1,4,8,2,10,0];

nSkills = 4;
sreq = [| 0,0,0,0,
	| 0,3,3,3,
	| 4,0,3,3,
	| 7,2,3,0,
	| 4,5,2,0,
	| 7,6,0,3,
	| 0,4,3,4,
	| 5,0,3,5,
	| 3,7,4,0,
	| 7,5,0,5,
	| 0,4,4,3,
	| 5,7,1,0,
	| 2,4,0,5,
	| 5,5,0,7,
	| 0,4,2,3,
	| 3,0,7,6,
	| 3,1,0,5,
	| 4,4,0,2,
	| 5,0,3,5,
	| 7,1,0,3,
	| 0,4,7,4,
	| 4,4,4,0,
	| 6,5,5,0,
	| 2,5,0,5,
	| 4,5,0,3,
	| 0,1,6,7,
	| 3,4,3,0,
	| 3,0,4,5,
	| 3,4,6,0,
	| 6,3,0,1,
	| 5,6,4,0,
	| 0,4,3,5,
	| 3,2,5,0,
	| 1,3,5,0,
	| 0,3,6,4,
	| 3,0,2,2,
	| 1,4,0,4,
	| 4,2,6,0,
	| 4,2,0,2,
	| 2,5,0,6,
	| 0,3,7,3,
	| 0,0,0,0, |];

nResources = 38;
mastery = [| false,false,false,true,
	| false,false,true,true,
	| true,false,false,false,
	| false,true,false,true,
	| true,false,false,false,
	| false,true,false,false,
	| true,true,false,true,
	| true,false,false,false,
	| true,true,true,false,
	| true,false,false,false,
	| true,false,false,true,
	| false,true,true,true,
	| true,true,false,true,
	| false,false,true,false,
	| false,true,false,true,
	| true,true,false,false,
	| true,true,false,false,
	| false,false,true,false,
	| true,true,false,true,
	| false,false,true,true,
	| true,false,true,false,
	| true,true,true,false,
	| true,false,false,false,
	| false,true,true,true,
	| false,true,false,true,
	| true,true,false,true,
	| true,false,false,false,
	| true,true,true,false,
	| true,true,true,false,
	| false,true,false,true,
	| true,false,false,true,
	| true,false,true,false,
	| false,true,false,true,
	| true,false,true,false,
	| false,true,true,false,
	| true,true,false,true,
	| true,false,true,true,
	| true,false,true,false, |];

nPrecs = 85;
pred = [1,1,1,2,2,2,3,3,3,4,4,4,5,5,5,6,6,6,7,7,7,8,8,8,9,10,10,10,11,11,11,12,12,12,13,13,13,14,14,15,15,15,16,16,16,17,17,17,18,18,18,19,20,20,21,21,22,23,23,23,24,24,24,25,25,25,26,27,28,29,30,31,31,32,32,33,34,34,35,36,37,38,39,40,41];
succ = [2,3,4,26,5,14,10,11,8,19,11,23,15,6,7,17,20,29,18,12,24,9,19,37,13,26,20,39,17,13,14,33,34,31,41,21,22,18,40,32,30,16,27,28,19,25,27,21,27,29,38,34,28,23,28,39,26,36,30,32,34,35,31,33,31,32,29,33,36,30,35,36,38,41,35,37,41,38,37,40,40,39,42,42,42];

nUnrels = 401;
unpred = [2,2,2,2,2,2,2,2,3,3,3,3,3,3,3,3,4,4,4,4,4,4,4,4,4,4,4,5,5,5,5,5,5,5,5,6,6,6,6,6,6,6,6,6,6,6,6,6,6,6,6,7,7,7,7,7,7,7,7,7,7,7,7,7,7,7,7,7,7,8,8,8,8,8,8,8,8,8,8,8,8,8,8,8,8,9,9,9,9,9,9,9,9,9,9,9,9,9,9,9,9,9,9,9,10,10,10,10,10,10,10,10,10,10,10,10,10,10,10,10,10,10,11,11,11,11,11,11,11,11,12,12,12,12,12,12,12,12,12,12,12,12,12,12,12,12,12,12,12,12,13,13,13,13,13,13,13,13,13,13,13,13,13,13,13,13,14,14,14,14,14,14,14,14,14,14,14,14,14,14,14,14,14,15,15,15,15,15,15,15,15,15,15,15,16,16,16,16,16,16,16,16,16,16,16,16,16,16,17,17,17,17,17,17,17,17,17,17,18,18,18,18,18,18,18,18,18,18,18,18,18,18,19,19,19,19,19,19,19,19,19,19,19,19,19,19,19,19,19,19,20,20,20,20,20,20,20,20,20,20,20,20,21,21,21,21,21,21,21,21,21,21,21,21,21,21,21,21,22,22,22,22,22,22,22,22,22,22,22,22,22,23,23,23,23,23,23,23,23,23,23,23,24,24,24,24,24,24,24,24,25,25,25,25,25,25,26,26,26,26,26,26,26,26,26,26,27,27,27,27,27,27,27,27,27,27,27,28,28,28,28,28,28,28,28,28,28,28,29,29,29,29,29,29,29,29,30,30,30,30,30,30,30,30,31,31,31,31,31,31,32,32,32,32,32,33,33,33,33,33,33,34,34,34,34,35,35,35,35,36,36,36,36,37,37,37,38,38,39,39,40];
unsucc = [3,4,8,9,10,11,13,22,4,5,6,7,12,15,16,24,5,6,7,8,9,10,12,15,16,20,24,8,9,10,11,13,14,22,26,7,8,9,10,11,12,13,14,15,16,18,19,22,24,26,34,8,9,10,11,13,14,15,16,17,19,20,21,22,23,25,26,28,32,10,11,12,14,15,16,17,18,20,23,24,25,27,31,32,33,10,11,12,14,15,16,17,18,19,20,23,24,25,27,31,32,33,34,38,11,12,13,14,15,16,17,18,19,21,22,24,25,27,31,33,34,38,12,15,16,19,20,23,24,34,13,14,15,16,17,18,19,20,21,22,23,24,25,26,27,28,29,30,32,35,14,15,16,17,18,19,20,23,24,25,27,31,32,33,34,38,15,16,17,19,20,21,22,23,24,25,26,28,31,32,34,36,41,17,18,20,21,22,23,24,25,26,29,31,17,18,20,21,22,23,24,25,26,29,30,31,32,35,18,19,20,22,23,24,26,29,30,34,19,20,21,22,23,24,25,26,28,31,32,34,36,41,20,21,22,23,24,25,26,27,28,29,30,31,32,33,35,36,37,40,21,22,24,25,26,27,29,31,33,34,38,39,22,23,24,25,26,27,29,30,31,32,33,34,35,37,38,41,23,24,25,27,28,31,32,33,34,36,38,39,41,24,25,26,27,28,29,31,33,34,38,39,25,26,27,28,29,30,32,33,26,27,28,29,30,34,27,28,31,32,33,34,36,38,39,41,28,29,30,31,32,34,35,36,38,39,41,29,30,31,32,33,34,35,37,38,39,41,31,32,33,34,36,38,39,41,31,32,33,34,36,38,39,41,32,33,34,35,37,41,33,34,36,38,39,34,35,36,38,39,41,35,36,37,40,36,38,39,41,37,38,39,41,38,39,41,40,41,40,41,41];

USEFUL_RES = [{},
	{1,2,4,6,7,9,11,12,13,14,15,16,17,18,19,20,21,22,24,25,26,28,29,30,31,32,33,34,35,36,37,38},
	{1,2,3,4,5,7,8,9,10,11,12,13,14,15,16,17,18,19,20,21,22,23,24,25,26,27,28,29,30,31,32,33,34,35,36,37,38},
	{2,3,4,5,6,7,8,9,10,11,12,13,14,15,16,17,18,19,20,21,22,23,24,25,26,27,28,29,30,31,32,33,34,35,36,37,38},
	{2,3,4,5,6,7,8,9,10,11,12,13,14,15,16,17,18,19,20,21,22,23,24,25,26,27,28,29,30,31,32,33,34,35,36,37,38},
	{1,2,3,4,5,6,7,8,9,10,11,12,13,15,16,17,19,20,21,22,23,24,25,26,27,28,29,30,31,32,33,34,35,36,37,38},
	{1,2,4,6,7,9,11,12,13,14,15,16,17,18,19,20,21,22,24,25,26,28,29,30,31,32,33,34,35,36,37,38},
	{1,2,3,4,5,7,8,9,10,11,12,13,14,15,16,17,18,19,20,21,22,23,24,25,26,27,28,29,30,31,32,33,34,35,36,37,38},
	{2,3,4,5,6,7,8,9,10,11,12,13,14,15,16,17,18,19,20,21,22,23,24,25,26,27,28,29,30,31,32,33,34,35,36,37,38},
	{1,2,3,4,5,6,7,8,9,10,11,12,13,15,16,17,19,20,21,22,23,24,25,26,27,28,29,30,31,32,33,34,35,36,37,38},
	{1,2,4,6,7,9,11,12,13,14,15,16,17,18,19,20,21,22,24,25,26,28,29,30,31,32,33,34,35,36,37,38},
	{2,3,4,5,6,7,8,9,10,11,12,13,14,15,16,17,18,19,20,21,22,23,24,25,26,27,28,29,30,31,32,33,34,35,36,37,38},
	{1,2,3,4,5,6,7,8,9,10,11,12,13,15,16,17,19,20,21,22,23,24,25,26,27,28,29,30,31,32,33,34,35,36,37,38},
	{1,2,3,4,5,6,7,8,9,10,11,12,13,15,16,17,19,20,21,22,23,24,25,26,27,28,29,30,31,32,33,34,35,36,37,38},
	{1,2,4,6,7,9,11,12,13,14,15,16,17,18,19,20,21,22,24,25,26,28,29,30,31,32,33,34,35,36,37,38},
	{1,2,3,4,5,7,8,9,10,11,12,13,14,15,16,17,18,19,20,21,22,23,24,25,26,27,28,29,30,31,32,33,34,35,36,37,38},
	{1,2,3,4,5,6,7,8,9,10,11,12,13,15,16,17,19,20,21,22,23,24,25,26,27,28,29,30,31,32,33,34,35,36,37,38},
	{1,2,3,4,5,6,7,8,9,10,11,12,13,15,16,17,19,20,21,22,23,24,25,26,27,28,29,30,31,32,33,34,35,36,37,38},
	{1,2,3,4,5,7,8,9,10,11,12,13,14,15,16,17,18,19,20,21,22,23,24,25,26,27,28,29,30,31,32,33,34,35,36,37,38},
	{1,2,3,4,5,6,7,8,9,10,11,12,13,15,16,17,19,20,21,22,23,24,25,26,27,28,29,30,31,32,33,34,35,36,37,38},
	{1,2,4,6,7,9,11,12,13,14,15,16,17,18,19,20,21,22,24,25,26,28,29,30,31,32,33,34,35,36,37,38},
	{2,3,4,5,6,7,8,9,10,11,12,13,14,15,16,17,18,19,20,21,22,23,24,25,26,27,28,29,30,31,32,33,34,35,36,37,38},
	{2,3,4,5,6,7,8,9,10,11,12,13,14,15,16,17,18,19,20,21,22,23,24,25,26,27,28,29,30,31,32,33,34,35,36,37,38},
	{1,2,3,4,5,6,7,8,9,10,11,12,13,15,16,17,19,20,21,22,23,24,25,26,27,28,29,30,31,32,33,34,35,36,37,38},
	{1,2,3,4,5,6,7,8,9,10,11,12,13,15,16,17,19,20,21,22,23,24,25,26,27,28,29,30,31,32,33,34,35,36,37,38},
	{1,2,4,6,7,9,11,12,13,14,15,16,17,18,19,20,21,22,24,25,26,28,29,30,31,32,33,34,35,36,37,38},
	{2,3,4,5,6,7,8,9,10,11,12,13,14,15,16,17,18,19,20,21,22,23,24,25,26,27,28,29,30,31,32,33,34,35,36,37,38},
	{1,2,3,4,5,7,8,9,10,11,12,13,14,15,16,17,18,19,20,21,22,23,24,25,26,27,28,29,30,31,32,33,34,35,36,37,38},
	{2,3,4,5,6,7,8,9,10,11,12,13,14,15,16,17,18,19,20,21,22,23,24,25,26,27,28,29,30,31,32,33,34,35,36,37,38},
	{1,2,3,4,5,6,7,8,9,10,11,12,13,15,16,17,19,20,21,22,23,24,25,26,27,28,29,30,31,32,33,34,35,36,37,38},
	{2,3,4,5,6,7,8,9,10,11,12,13,14,15,16,17,18,19,20,21,22,23,24,25,26,27,28,29,30,31,32,33,34,35,36,37,38},
	{1,2,4,6,7,9,11,12,13,14,15,16,17,18,19,20,21,22,24,25,26,28,29,30,31,32,33,34,35,36,37,38},
	{2,3,4,5,6,7,8,9,10,11,12,13,14,15,16,17,18,19,20,21,22,23,24,25,26,27,28,29,30,31,32,33,34,35,36,37,38},
	{2,3,4,5,6,7,8,9,10,11,12,13,14,15,16,17,18,19,20,21,22,23,24,25,26,27,28,29,30,31,32,33,34,35,36,37,38},
	{1,2,4,6,7,9,11,12,13,14,15,16,17,18,19,20,21,22,24,25,26,28,29,30,31,32,33,34,35,36,37,38},
	{1,2,3,4,5,7,8,9,10,11,12,13,14,15,16,17,18,19,20,21,22,23,24,25,26,27,28,29,30,31,32,33,34,35,36,37,38},
	{1,2,3,4,5,6,7,8,9,10,11,12,13,15,16,17,19,20,21,22,23,24,25,26,27,28,29,30,31,32,33,34,35,36,37,38},
	{2,3,4,5,6,7,8,9,10,11,12,13,14,15,16,17,18,19,20,21,22,23,24,25,26,27,28,29,30,31,32,33,34,35,36,37,38},
	{1,2,3,4,5,6,7,8,9,10,11,12,13,15,16,17,19,20,21,22,23,24,25,26,27,28,29,30,31,32,33,34,35,36,37,38},
	{1,2,3,4,5,6,7,8,9,10,11,12,13,15,16,17,19,20,21,22,23,24,25,26,27,28,29,30,31,32,33,34,35,36,37,38},
	{1,2,4,6,7,9,11,12,13,14,15,16,17,18,19,20,21,22,24,25,26,28,29,30,31,32,33,34,35,36,37,38},
	{}];

POTENTIAL_ACT = [{2,3,6,7,8,10,11,13,14,15,16,17,18,19,20,21,24,25,26,28,30,32,35,36,37,39,40,41},
	{2,3,4,5,6,7,8,9,10,11,12,13,14,15,16,17,18,19,20,21,22,23,24,25,26,27,28,29,30,31,32,33,34,35,36,37,38,39,40,41},
	{3,4,5,6,8,9,10,12,13,14,16,17,18,19,20,22,23,24,25,27,28,29,30,31,33,34,36,37,38,39,40},
	{2,3,4,5,6,7,8,9,10,11,12,13,14,15,16,17,18,19,20,21,22,23,24,25,26,27,28,29,30,31,32,33,34,35,36,37,38,39,40,41},
	{3,4,5,6,8,9,10,12,13,14,16,17,18,19,20,22,23,24,25,27,28,29,30,31,33,34,36,37,38,39,40},
	{2,4,5,6,7,9,10,11,12,13,14,15,17,18,20,21,22,23,24,25,26,27,29,30,31,32,33,34,35,37,38,39,40,41},
	{2,3,4,5,6,7,8,9,10,11,12,13,14,15,16,17,18,19,20,21,22,23,24,25,26,27,28,29,30,31,32,33,34,35,36,37,38,39,40,41},
	{3,4,5,6,8,9,10,12,13,14,16,17,18,19,20,22,23,24,25,27,28,29,30,31,33,34,36,37,38,39,40},
	{2,3,4,5,6,7,8,9,10,11,12,13,14,15,16,17,18,19,20,21,22,23,24,25,26,27,28,29,30,31,32,33,34,35,36,37,38,39,40,41},
	{3,4,5,6,8,9,10,12,13,14,16,17,18,19,20,22,23,24,25,27,28,29,30,31,33,34,36,37,38,39,40},
	{2,3,4,5,6,7,8,9,10,11,12,13,14,15,16,17,18,19,20,21,22,23,24,25,26,27,28,29,30,31,32,33,34,35,36,37,38,39,40,41},
	{2,3,4,5,6,7,8,9,10,11,12,13,14,15,16,17,18,19,20,21,22,23,24,25,26,27,28,29,30,31,32,33,34,35,36,37,38,39,40,41},
	{2,3,4,5,6,7,8,9,10,11,12,13,14,15,16,17,18,19,20,21,22,23,24,25,26,27,28,29,30,31,32,33,34,35,36,37,38,39,40,41},
	{2,3,4,5,7,8,9,11,12,15,16,19,21,22,23,26,27,28,29,31,32,33,34,35,36,38,41},
	{2,3,4,5,6,7,8,9,10,11,12,13,14,15,16,17,18,19,20,21,22,23,24,25,26,27,28,29,30,31,32,33,34,35,36,37,38,39,40,41},
	{2,3,4,5,6,7,8,9,10,11,12,13,14,15,16,17,18,19,20,21,22,23,24,25,26,27,28,29,30,31,32,33,34,35,36,37,38,39,40,41},
	{2,3,4,5,6,7,8,9,10,11,12,13,14,15,16,17,18,19,20,21,22,23,24,25,26,27,28,29,30,31,32,33,34,35,36,37,38,39,40,41},
	{2,3,4,5,7,8,9,11,12,15,16,19,21,22,23,26,27,28,29,31,32,33,34,35,36,38,41},
	{2,3,4,5,6,7,8,9,10,11,12,13,14,15,16,17,18,19,20,21,22,23,24,25,26,27,28,29,30,31,32,33,34,35,36,37,38,39,40,41},
	{2,3,4,5,6,7,8,9,10,11,12,13,14,15,16,17,18,19,20,21,22,23,24,25,26,27,28,29,30,31,32,33,34,35,36,37,38,39,40,41},
	{2,3,4,5,6,7,8,9,10,11,12,13,14,15,16,17,18,19,20,21,22,23,24,25,26,27,28,29,30,31,32,33,34,35,36,37,38,39,40,41},
	{2,3,4,5,6,7,8,9,10,11,12,13,14,15,16,17,18,19,20,21,22,23,24,25,26,27,28,29,30,31,32,33,34,35,36,37,38,39,40,41},
	{3,4,5,6,8,9,10,12,13,14,16,17,18,19,20,22,23,24,25,27,28,29,30,31,33,34,36,37,38,39,40},
	{2,3,4,5,6,7,8,9,10,11,12,13,14,15,16,17,18,19,20,21,22,23,24,25,26,27,28,29,30,31,32,33,34,35,36,37,38,39,40,41},
	{2,3,4,5,6,7,8,9,10,11,12,13,14,15,16,17,18,19,20,21,22,23,24,25,26,27,28,29,30,31,32,33,34,35,36,37,38,39,40,41},
	{2,3,4,5,6,7,8,9,10,11,12,13,14,15,16,17,18,19,20,21,22,23,24,25,26,27,28,29,30,31,32,33,34,35,36,37,38,39,40,41},
	{3,4,5,6,8,9,10,12,13,14,16,17,18,19,20,22,23,24,25,27,28,29,30,31,33,34,36,37,38,39,40},
	{2,3,4,5,6,7,8,9,10,11,12,13,14,15,16,17,18,19,20,21,22,23,24,25,26,27,28,29,30,31,32,33,34,35,36,37,38,39,40,41},
	{2,3,4,5,6,7,8,9,10,11,12,13,14,15,16,17,18,19,20,21,22,23,24,25,26,27,28,29,30,31,32,33,34,35,36,37,38,39,40,41},
	{2,3,4,5,6,7,8,9,10,11,12,13,14,15,16,17,18,19,20,21,22,23,24,25,26,27,28,29,30,31,32,33,34,35,36,37,38,39,40,41},
	{2,3,4,5,6,7,8,9,10,11,12,13,14,15,16,17,18,19,20,21,22,23,24,25,26,27,28,29,30,31,32,33,34,35,36,37,38,39,40,41},
	{2,3,4,5,6,7,8,9,10,11,12,13,14,15,16,17,18,19,20,21,22,23,24,25,26,27,28,29,30,31,32,33,34,35,36,37,38,39,40,41},
	{2,3,4,5,6,7,8,9,10,11,12,13,14,15,16,17,18,19,20,21,22,23,24,25,26,27,28,29,30,31,32,33,34,35,36,37,38,39,40,41},
	{2,3,4,5,6,7,8,9,10,11,12,13,14,15,16,17,18,19,20,21,22,23,24,25,26,27,28,29,30,31,32,33,34,35,36,37,38,39,40,41},
	{2,3,4,5,6,7,8,9,10,11,12,13,14,15,16,17,18,19,20,21,22,23,24,25,26,27,28,29,30,31,32,33,34,35,36,37,38,39,40,41},
	{2,3,4,5,6,7,8,9,10,11,12,13,14,15,16,17,18,19,20,21,22,23,24,25,26,27,28,29,30,31,32,33,34,35,36,37,38,39,40,41},
	{2,3,4,5,6,7,8,9,10,11,12,13,14,15,16,17,18,19,20,21,22,23,24,25,26,27,28,29,30,31,32,33,34,35,36,37,38,39,40,41},
	{2,3,4,5,6,7,8,9,10,11,12,13,14,15,16,17,18,19,20,21,22,23,24,25,26,27,28,29,30,31,32,33,34,35,36,37,38,39,40,41}];
